p cnf 10 50
-5 3 -4 0
-7 -3 -9 0
7 2 3 0
8 -4 1 0
2 5 -9 0
-4 5 -2 0
-7 -8 -9 0
10 9 -2 0
10 8 -4 0
2 -7 4 0
-8 -10 9 0
-10 3 -2 0
8 3 -1 0
6 10 -3 0
4 -3 -9 0
6 2 3 0
4 6 5 0
-5 -8 2 0
-9 -1 2 0
3 -2 7 0
-7 2 -6 0
7 1 -3 0
-5 2 -10 0
-3 -10 -8 0
7 3 2 0
-4 -10 -5 0
-4 6 3 0
-3 1 -9 0
8 -9 4 0
-7 4 -9 0
8 -3 10 0
-4 9 -7 0
3 5 8 0
-7 -1 5 0
9 -8 -6 0
2 4 7 0
-5 -4 10 0
9 3 -4 0
-9 -2 7 0
2 -10 1 0
10 -9 8 0
2 4 -1 0
5 8 -1 0
5 9 -8 0
-7 -2 -4 0
-10 4 -5 0
1 6 5 0
2 3 -1 0
9 7 4 0
-8 9 7 0